
  12    4
  10   10   10   10

   0   0   0   0   0   1 2 
   6  10  10  10  10   2 6 3 
   3  10  10  10  10   2 5 4 
   8  10  10  10  10   2 8 7 
   4  10  10  10  10   2 10 8 
   2  10  10  10  10   1 7 
   3  10  10  10  10   2 10 9 
   9  10  10  10  10   1 9 
   8  10  10  10  10   1 11 
  10  10  10  10  10   1 11 
   1  10  10  10  10   1 12
   0   0   0   0   0   0 
